p cnf 12 50 
-5 -9 -4 0
1 10 -8 0
-3 4 -6 0
11 -8 -4 0
-6 -4 3 0
-4 -9 -12 0
1 10 8 0
10 -3 -8 0
-8 -10 -9 0
11 2 9 0
-10 -12 3 0
6 -5 -3 0
2 8 -5 0
4 7 -5 0
2 12 -8 0
4 3 -1 0
-6 5 10 0
-2 10 -4 0
-9 -6 -10 0
-5 12 -3 0
12 -8 -4 0
10 9 6 0
-4 -3 10 0
9 -10 6 0
-1 -2 3 0
-10 11 -9 0
-12 11 -10 0
-5 -6 9 0
4 5 7 0
-4 -11 -7 0
2 -8 12 0
6 10 5 0
-6 -11 2 0
2 4 -7 0
7 4 -12 0
-9 -1 -10 0
2 -10 11 0
-2 -3 -11 0
-12 8 3 0
-3 -6 10 0
5 10 -4 0
-9 -4 1 0
-7 5 3 0
-5 -12 -2 0
7 4 -6 0
6 -11 12 0
-2 7 -1 0
-6 -9 8 0
10 6 5 0
2 -4 -8 0
